
fermi_energy    = 7.78947950

num_iter        = 4000
dis_num_iter    = 6000

# dis_win_min = 5
# dis_win_max = 10.5
dis_froz_min = 7.4
dis_froz_max = 9

exclude_bands : 1-51, 60-68

begin projections
c=0.0000000,0.0000000,0.0000000:dxz
c=2.6967669,0.0000000,2.6967666:dxz
# c=0.0000000,0.0000000,0.0000000:dxy
# c=0.0000000,0.0000000,0.0000000:dyz
# c=2.6967669,0.0000000,2.6967666:dxy
# c=2.6967669,0.0000000,2.6967666:dyz
end projections

guiding_centres = .true.
write_xyz = .true.
bands_plot        = T
write_hr          = T
begin kpoint_path
G        0.0000   0.0000   0.0000   X        0.2500   0.2500   0.5000
X        0.2500   0.2500   0.5000   M        0.0000   0.0000   1.0000
M        0.0000   0.0000   1.0000   G        0.0000   0.0000   0.0000
end kpoint_path
bands_plot_dim 2
bands_num_points 40

# This part was generated automatically by VASP
num_bands = 8
num_wann = 2
begin unit_cell_cart
     2.6967669    -6.6124511     0.0000000
     2.6967669     6.6124511     0.0000000
     0.0000000     0.0000000     5.3935332
end unit_cell_cart
begin atoms_cart
La       2.6967671     1.8396764     0.0000000
La       2.6967671    -4.7727747     2.6967666
La       2.6967667    -1.8396763     0.0000000
La       2.6967667     4.7727748     2.6967666
Cu       0.0000000     0.0000000     0.0000000
Cu       2.6967669     0.0000000     2.6967666
O        4.0451503    -0.0000000     4.0451499
O        1.3483834     0.0000000     1.3483834
O        4.0451503    -0.0000000     1.3483834
O        1.3483834     0.0000000     4.0451499
O        2.6967672     4.1496303     0.0000000
O        2.6967667    -2.4628208     2.6967666
O        2.6967671    -4.1496305     0.0000000
O        2.6967671     2.4628205     2.6967666
end atoms_cart
mp_grid =     6     6     6
begin kpoints
      0.000000000000      0.000000000000      0.000000000000
      0.166666666667     -0.000000000000      0.000000000000
      0.333333333333     -0.000000000000      0.000000000000
      0.500000000000      0.000000000000      0.000000000000
      0.166666666667      0.166666666667      0.000000000000
      0.333333333333      0.166666666667      0.000000000000
      0.500000000000      0.166666666667      0.000000000000
     -0.333333333333      0.166666666667      0.000000000000
     -0.166666666667      0.166666666667      0.000000000000
      0.333333333333      0.333333333333      0.000000000000
      0.500000000000      0.333333333333      0.000000000000
     -0.333333333333      0.333333333333      0.000000000000
      0.500000000000      0.500000000000      0.000000000000
      0.000000000000      0.000000000000      0.166666666667
      0.166666666667     -0.000000000000      0.166666666667
      0.333333333333     -0.000000000000      0.166666666667
      0.500000000000      0.000000000000      0.166666666667
      0.166666666667      0.166666666667      0.166666666667
      0.333333333333      0.166666666667      0.166666666667
      0.500000000000      0.166666666667      0.166666666667
     -0.333333333333      0.166666666667      0.166666666667
     -0.166666666667      0.166666666667      0.166666666667
      0.333333333333      0.333333333333      0.166666666667
      0.500000000000      0.333333333333      0.166666666667
     -0.333333333333      0.333333333333      0.166666666667
      0.500000000000      0.500000000000      0.166666666667
      0.000000000000      0.000000000000      0.333333333333
      0.166666666667     -0.000000000000      0.333333333333
      0.333333333333     -0.000000000000      0.333333333333
      0.500000000000      0.000000000000      0.333333333333
      0.166666666667      0.166666666667      0.333333333333
      0.333333333333      0.166666666667      0.333333333333
      0.500000000000      0.166666666667      0.333333333333
     -0.333333333333      0.166666666667      0.333333333333
     -0.166666666667      0.166666666667      0.333333333333
      0.333333333333      0.333333333333      0.333333333333
      0.500000000000      0.333333333333      0.333333333333
     -0.333333333333      0.333333333333      0.333333333333
      0.500000000000      0.500000000000      0.333333333333
      0.000000000000      0.000000000000      0.500000000000
      0.166666666667     -0.000000000000      0.500000000000
      0.333333333333     -0.000000000000      0.500000000000
      0.500000000000      0.000000000000      0.500000000000
      0.166666666667      0.166666666667      0.500000000000
      0.333333333333      0.166666666667      0.500000000000
      0.500000000000      0.166666666667      0.500000000000
     -0.333333333333      0.166666666667      0.500000000000
     -0.166666666667      0.166666666667      0.500000000000
      0.333333333333      0.333333333333      0.500000000000
      0.500000000000      0.333333333333      0.500000000000
     -0.333333333333      0.333333333333      0.500000000000
      0.500000000000      0.500000000000      0.500000000000
     -0.166666666667      0.000000000000      0.000000000000
      0.000000000000     -0.166666666667      0.000000000000
     -0.000000000000      0.166666666667      0.000000000000
     -0.333333333333      0.000000000000      0.000000000000
      0.000000000000     -0.333333333333      0.000000000000
     -0.000000000000      0.333333333333      0.000000000000
     -0.000000000000     -0.500000000000      0.000000000000
     -0.166666666667     -0.166666666667      0.000000000000
     -0.333333333333     -0.166666666667      0.000000000000
     -0.166666666667     -0.333333333333      0.000000000000
      0.166666666667      0.333333333333      0.000000000000
     -0.500000000000     -0.166666666667      0.000000000000
     -0.166666666667     -0.500000000000      0.000000000000
      0.166666666667      0.500000000000      0.000000000000
      0.333333333333     -0.166666666667      0.000000000000
     -0.166666666667      0.333333333333      0.000000000000
      0.166666666667     -0.333333333333      0.000000000000
      0.166666666667     -0.166666666667      0.000000000000
     -0.333333333333     -0.333333333333      0.000000000000
     -0.500000000000     -0.333333333333      0.000000000000
     -0.333333333333     -0.500000000000      0.000000000000
      0.333333333333      0.500000000000      0.000000000000
      0.333333333333     -0.333333333333      0.000000000000
      0.000000000000      0.000000000000     -0.166666666667
     -0.166666666667      0.000000000000     -0.166666666667
     -0.166666666667      0.000000000000      0.166666666667
      0.166666666667     -0.000000000000     -0.166666666667
      0.000000000000     -0.166666666667     -0.166666666667
     -0.000000000000      0.166666666667      0.166666666667
     -0.000000000000      0.166666666667     -0.166666666667
      0.000000000000     -0.166666666667      0.166666666667
     -0.333333333333      0.000000000000     -0.166666666667
     -0.333333333333      0.000000000000      0.166666666667
      0.333333333333     -0.000000000000     -0.166666666667
      0.000000000000     -0.333333333333     -0.166666666667
     -0.000000000000      0.333333333333      0.166666666667
     -0.000000000000      0.333333333333     -0.166666666667
      0.000000000000     -0.333333333333      0.166666666667
     -0.500000000000     -0.000000000000     -0.166666666667
     -0.000000000000     -0.500000000000     -0.166666666667
      0.000000000000      0.500000000000      0.166666666667
     -0.166666666667     -0.166666666667     -0.166666666667
     -0.166666666667     -0.166666666667      0.166666666667
      0.166666666667      0.166666666667     -0.166666666667
     -0.333333333333     -0.166666666667     -0.166666666667
     -0.333333333333     -0.166666666667      0.166666666667
      0.333333333333      0.166666666667     -0.166666666667
     -0.166666666667     -0.333333333333     -0.166666666667
      0.166666666667      0.333333333333      0.166666666667
      0.166666666667      0.333333333333     -0.166666666667
     -0.166666666667     -0.333333333333      0.166666666667
     -0.500000000000     -0.166666666667     -0.166666666667
     -0.500000000000     -0.166666666667      0.166666666667
      0.500000000000      0.166666666667     -0.166666666667
     -0.166666666667     -0.500000000000     -0.166666666667
      0.166666666667      0.500000000000      0.166666666667
      0.166666666667      0.500000000000     -0.166666666667
     -0.166666666667     -0.500000000000      0.166666666667
      0.333333333333     -0.166666666667     -0.166666666667
      0.333333333333     -0.166666666667      0.166666666667
     -0.333333333333      0.166666666667     -0.166666666667
     -0.166666666667      0.333333333333     -0.166666666667
      0.166666666667     -0.333333333333      0.166666666667
      0.166666666667     -0.333333333333     -0.166666666667
     -0.166666666667      0.333333333333      0.166666666667
      0.166666666667     -0.166666666667     -0.166666666667
      0.166666666667     -0.166666666667      0.166666666667
     -0.166666666667      0.166666666667     -0.166666666667
     -0.333333333333     -0.333333333333     -0.166666666667
     -0.333333333333     -0.333333333333      0.166666666667
      0.333333333333      0.333333333333     -0.166666666667
     -0.500000000000     -0.333333333333     -0.166666666667
     -0.500000000000     -0.333333333333      0.166666666667
      0.500000000000      0.333333333333     -0.166666666667
     -0.333333333333     -0.500000000000     -0.166666666667
      0.333333333333      0.500000000000      0.166666666667
      0.333333333333      0.500000000000     -0.166666666667
     -0.333333333333     -0.500000000000      0.166666666667
      0.333333333333     -0.333333333333     -0.166666666667
      0.333333333333     -0.333333333333      0.166666666667
     -0.333333333333      0.333333333333     -0.166666666667
     -0.500000000000     -0.500000000000     -0.166666666667
      0.000000000000      0.000000000000     -0.333333333333
     -0.166666666667      0.000000000000     -0.333333333333
     -0.166666666667      0.000000000000      0.333333333333
      0.166666666667     -0.000000000000     -0.333333333333
      0.000000000000     -0.166666666667     -0.333333333333
     -0.000000000000      0.166666666667      0.333333333333
     -0.000000000000      0.166666666667     -0.333333333333
      0.000000000000     -0.166666666667      0.333333333333
     -0.333333333333      0.000000000000     -0.333333333333
     -0.333333333333      0.000000000000      0.333333333333
      0.333333333333     -0.000000000000     -0.333333333333
      0.000000000000     -0.333333333333     -0.333333333333
     -0.000000000000      0.333333333333      0.333333333333
     -0.000000000000      0.333333333333     -0.333333333333
      0.000000000000     -0.333333333333      0.333333333333
     -0.500000000000     -0.000000000000     -0.333333333333
     -0.000000000000     -0.500000000000     -0.333333333333
      0.000000000000      0.500000000000      0.333333333333
     -0.166666666667     -0.166666666667     -0.333333333333
     -0.166666666667     -0.166666666667      0.333333333333
      0.166666666667      0.166666666667     -0.333333333333
     -0.333333333333     -0.166666666667     -0.333333333333
     -0.333333333333     -0.166666666667      0.333333333333
      0.333333333333      0.166666666667     -0.333333333333
     -0.166666666667     -0.333333333333     -0.333333333333
      0.166666666667      0.333333333333      0.333333333333
      0.166666666667      0.333333333333     -0.333333333333
     -0.166666666667     -0.333333333333      0.333333333333
     -0.500000000000     -0.166666666667     -0.333333333333
     -0.500000000000     -0.166666666667      0.333333333333
      0.500000000000      0.166666666667     -0.333333333333
     -0.166666666667     -0.500000000000     -0.333333333333
      0.166666666667      0.500000000000      0.333333333333
      0.166666666667      0.500000000000     -0.333333333333
     -0.166666666667     -0.500000000000      0.333333333333
      0.333333333333     -0.166666666667     -0.333333333333
      0.333333333333     -0.166666666667      0.333333333333
     -0.333333333333      0.166666666667     -0.333333333333
     -0.166666666667      0.333333333333     -0.333333333333
      0.166666666667     -0.333333333333      0.333333333333
      0.166666666667     -0.333333333333     -0.333333333333
     -0.166666666667      0.333333333333      0.333333333333
      0.166666666667     -0.166666666667     -0.333333333333
      0.166666666667     -0.166666666667      0.333333333333
     -0.166666666667      0.166666666667     -0.333333333333
     -0.333333333333     -0.333333333333     -0.333333333333
     -0.333333333333     -0.333333333333      0.333333333333
      0.333333333333      0.333333333333     -0.333333333333
     -0.500000000000     -0.333333333333     -0.333333333333
     -0.500000000000     -0.333333333333      0.333333333333
      0.500000000000      0.333333333333     -0.333333333333
     -0.333333333333     -0.500000000000     -0.333333333333
      0.333333333333      0.500000000000      0.333333333333
      0.333333333333      0.500000000000     -0.333333333333
     -0.333333333333     -0.500000000000      0.333333333333
      0.333333333333     -0.333333333333     -0.333333333333
      0.333333333333     -0.333333333333      0.333333333333
     -0.333333333333      0.333333333333     -0.333333333333
     -0.500000000000     -0.500000000000     -0.333333333333
     -0.166666666667      0.000000000000     -0.500000000000
      0.000000000000     -0.166666666667     -0.500000000000
     -0.000000000000      0.166666666667      0.500000000000
     -0.333333333333      0.000000000000     -0.500000000000
      0.000000000000     -0.333333333333     -0.500000000000
     -0.000000000000      0.333333333333      0.500000000000
     -0.000000000000     -0.500000000000     -0.500000000000
     -0.166666666667     -0.166666666667     -0.500000000000
     -0.333333333333     -0.166666666667     -0.500000000000
     -0.166666666667     -0.333333333333     -0.500000000000
      0.166666666667      0.333333333333      0.500000000000
     -0.500000000000     -0.166666666667     -0.500000000000
     -0.166666666667     -0.500000000000     -0.500000000000
      0.166666666667      0.500000000000      0.500000000000
      0.333333333333     -0.166666666667     -0.500000000000
     -0.166666666667      0.333333333333     -0.500000000000
      0.166666666667     -0.333333333333      0.500000000000
      0.166666666667     -0.166666666667     -0.500000000000
     -0.333333333333     -0.333333333333     -0.500000000000
     -0.500000000000     -0.333333333333     -0.500000000000
     -0.333333333333     -0.500000000000     -0.500000000000
      0.333333333333      0.500000000000      0.500000000000
      0.333333333333     -0.333333333333     -0.500000000000
end kpoints
